129
10000000
469967
546015
926212
1156823
557473
712083
692844
2393493
900767
1240912
1065376
399404
2393218
2486057
168194
1864295
1821790
630067
253725
1723445
388665
1243921
1846088
277464
1182907
1299006
461239
1719098
1019068
658313
1704677
2191750
2167246
257007
1668368
732011
351097
2449854
1497268
1722530
533149
617472
1936611
1117453
312860
1567145
2858
103422
885902
2360130
1780970
1890468
1776902
297058
2278496
1182116
386358
1293828
1153262
1009721
70644
1109412
697921
533207
1835410
298560
1601750
401917
440070
1570527
2411848
465948
487505
2445202
1180412
2132769
892793
602201
1980340
822127
225672
1315407
2118367
492777
924002
782357
724
770438
473943
294987
1705934
1670959
1467763
978704
2040646
1994136
606620
2179516
2468911
600768
834770
2467970
1110673
334918
2425138
732767
2200618
1026476
1459093
1827389
2100610
503319
1755501
368056
1690189
1501634
870871
51866
979941
2477818
438067
2010548
265469
361666
916607
339735
2178007
378071
1573101
